Results/Experiment 1 Results/New Benchmark/RES_20/output_p1_0.00_p2_0.00_n_20_03.txt
solutions: 72 nodes: 130  modelTime: 105  solveTime: 22  totalTime: 128  modelSize: 7358  readTime: 1 matchingSize: 10
