Results/Experiment 2 Results/New Benchmark/output_p1_0.00_p2_0.00_n_20_03.lp
clingo version 5.4.0
Reading from tempSRTISolver.lp ...
Solving...
Answer: 1
matched(7,2) matched(6,3) matched(1,4) matched(8,5) matched(3,6) matched(2,7) matched(5,8) matched(9,10) matched(12,11) matched(11,12) matched(10,9) matched(18,14) matched(13,15) matched(20,16) matched(19,17) matched(14,18) matched(17,19) matched(16,20) matched(15,13) matched(4,1)
Optimization: 98
OPTIMUM FOUND

Models       : 1
  Optimum    : yes
Optimization : 98
Calls        : 1
Time         : 0.080s (Solving: 0.00s 1st Model: 0.00s Unsat: 0.00s)
CPU Time     : 0.080s
